c *********************************
c * Circuit generated by BenCGen
c *
c * CarrySaveAdder_103_103_103_103_104
c *
c * Ports with 1 gate(s): 2
c * Ports with 2 gate(s): 516
c * Total gates: 518
c *********************************
p cnf 827 1758
1 518 0
-1 -518 0
1 -517 0
518 -517 0
-1 -518 517 0
517 -413 0
-517 413 0
1 104 -519 0
-1 104 519 0
1 -104 519 0
-1 -104 -519 0
519 207 -310 0
-519 207 310 0
519 -207 310 0
-519 -207 -310 0
207 -520 0
519 -520 0
-207 -519 520 0
104 -521 0
1 -521 0
-104 -1 521 0
-520 414 0
-521 414 0
520 521 -414 0
2 105 -522 0
-2 105 522 0
2 -105 522 0
-2 -105 -522 0
522 208 -311 0
-522 208 311 0
522 -208 311 0
-522 -208 -311 0
208 -523 0
522 -523 0
-208 -522 523 0
105 -524 0
2 -524 0
-105 -2 524 0
-523 415 0
-524 415 0
523 524 -415 0
3 106 -525 0
-3 106 525 0
3 -106 525 0
-3 -106 -525 0
525 209 -312 0
-525 209 312 0
525 -209 312 0
-525 -209 -312 0
209 -526 0
525 -526 0
-209 -525 526 0
106 -527 0
3 -527 0
-106 -3 527 0
-526 416 0
-527 416 0
526 527 -416 0
4 107 -528 0
-4 107 528 0
4 -107 528 0
-4 -107 -528 0
528 210 -313 0
-528 210 313 0
528 -210 313 0
-528 -210 -313 0
210 -529 0
528 -529 0
-210 -528 529 0
107 -530 0
4 -530 0
-107 -4 530 0
-529 417 0
-530 417 0
529 530 -417 0
5 108 -531 0
-5 108 531 0
5 -108 531 0
-5 -108 -531 0
531 211 -314 0
-531 211 314 0
531 -211 314 0
-531 -211 -314 0
211 -532 0
531 -532 0
-211 -531 532 0
108 -533 0
5 -533 0
-108 -5 533 0
-532 418 0
-533 418 0
532 533 -418 0
6 109 -534 0
-6 109 534 0
6 -109 534 0
-6 -109 -534 0
534 212 -315 0
-534 212 315 0
534 -212 315 0
-534 -212 -315 0
212 -535 0
534 -535 0
-212 -534 535 0
109 -536 0
6 -536 0
-109 -6 536 0
-535 419 0
-536 419 0
535 536 -419 0
7 110 -537 0
-7 110 537 0
7 -110 537 0
-7 -110 -537 0
537 213 -316 0
-537 213 316 0
537 -213 316 0
-537 -213 -316 0
213 -538 0
537 -538 0
-213 -537 538 0
110 -539 0
7 -539 0
-110 -7 539 0
-538 420 0
-539 420 0
538 539 -420 0
8 111 -540 0
-8 111 540 0
8 -111 540 0
-8 -111 -540 0
540 214 -317 0
-540 214 317 0
540 -214 317 0
-540 -214 -317 0
214 -541 0
540 -541 0
-214 -540 541 0
111 -542 0
8 -542 0
-111 -8 542 0
-541 421 0
-542 421 0
541 542 -421 0
9 112 -543 0
-9 112 543 0
9 -112 543 0
-9 -112 -543 0
543 215 -318 0
-543 215 318 0
543 -215 318 0
-543 -215 -318 0
215 -544 0
543 -544 0
-215 -543 544 0
112 -545 0
9 -545 0
-112 -9 545 0
-544 422 0
-545 422 0
544 545 -422 0
10 113 -546 0
-10 113 546 0
10 -113 546 0
-10 -113 -546 0
546 216 -319 0
-546 216 319 0
546 -216 319 0
-546 -216 -319 0
216 -547 0
546 -547 0
-216 -546 547 0
113 -548 0
10 -548 0
-113 -10 548 0
-547 423 0
-548 423 0
547 548 -423 0
11 114 -549 0
-11 114 549 0
11 -114 549 0
-11 -114 -549 0
549 217 -320 0
-549 217 320 0
549 -217 320 0
-549 -217 -320 0
217 -550 0
549 -550 0
-217 -549 550 0
114 -551 0
11 -551 0
-114 -11 551 0
-550 424 0
-551 424 0
550 551 -424 0
12 115 -552 0
-12 115 552 0
12 -115 552 0
-12 -115 -552 0
552 218 -321 0
-552 218 321 0
552 -218 321 0
-552 -218 -321 0
218 -553 0
552 -553 0
-218 -552 553 0
115 -554 0
12 -554 0
-115 -12 554 0
-553 425 0
-554 425 0
553 554 -425 0
13 116 -555 0
-13 116 555 0
13 -116 555 0
-13 -116 -555 0
555 219 -322 0
-555 219 322 0
555 -219 322 0
-555 -219 -322 0
219 -556 0
555 -556 0
-219 -555 556 0
116 -557 0
13 -557 0
-116 -13 557 0
-556 426 0
-557 426 0
556 557 -426 0
14 117 -558 0
-14 117 558 0
14 -117 558 0
-14 -117 -558 0
558 220 -323 0
-558 220 323 0
558 -220 323 0
-558 -220 -323 0
220 -559 0
558 -559 0
-220 -558 559 0
117 -560 0
14 -560 0
-117 -14 560 0
-559 427 0
-560 427 0
559 560 -427 0
15 118 -561 0
-15 118 561 0
15 -118 561 0
-15 -118 -561 0
561 221 -324 0
-561 221 324 0
561 -221 324 0
-561 -221 -324 0
221 -562 0
561 -562 0
-221 -561 562 0
118 -563 0
15 -563 0
-118 -15 563 0
-562 428 0
-563 428 0
562 563 -428 0
16 119 -564 0
-16 119 564 0
16 -119 564 0
-16 -119 -564 0
564 222 -325 0
-564 222 325 0
564 -222 325 0
-564 -222 -325 0
222 -565 0
564 -565 0
-222 -564 565 0
119 -566 0
16 -566 0
-119 -16 566 0
-565 429 0
-566 429 0
565 566 -429 0
17 120 -567 0
-17 120 567 0
17 -120 567 0
-17 -120 -567 0
567 223 -326 0
-567 223 326 0
567 -223 326 0
-567 -223 -326 0
223 -568 0
567 -568 0
-223 -567 568 0
120 -569 0
17 -569 0
-120 -17 569 0
-568 430 0
-569 430 0
568 569 -430 0
18 121 -570 0
-18 121 570 0
18 -121 570 0
-18 -121 -570 0
570 224 -327 0
-570 224 327 0
570 -224 327 0
-570 -224 -327 0
224 -571 0
570 -571 0
-224 -570 571 0
121 -572 0
18 -572 0
-121 -18 572 0
-571 431 0
-572 431 0
571 572 -431 0
19 122 -573 0
-19 122 573 0
19 -122 573 0
-19 -122 -573 0
573 225 -328 0
-573 225 328 0
573 -225 328 0
-573 -225 -328 0
225 -574 0
573 -574 0
-225 -573 574 0
122 -575 0
19 -575 0
-122 -19 575 0
-574 432 0
-575 432 0
574 575 -432 0
20 123 -576 0
-20 123 576 0
20 -123 576 0
-20 -123 -576 0
576 226 -329 0
-576 226 329 0
576 -226 329 0
-576 -226 -329 0
226 -577 0
576 -577 0
-226 -576 577 0
123 -578 0
20 -578 0
-123 -20 578 0
-577 433 0
-578 433 0
577 578 -433 0
21 124 -579 0
-21 124 579 0
21 -124 579 0
-21 -124 -579 0
579 227 -330 0
-579 227 330 0
579 -227 330 0
-579 -227 -330 0
227 -580 0
579 -580 0
-227 -579 580 0
124 -581 0
21 -581 0
-124 -21 581 0
-580 434 0
-581 434 0
580 581 -434 0
22 125 -582 0
-22 125 582 0
22 -125 582 0
-22 -125 -582 0
582 228 -331 0
-582 228 331 0
582 -228 331 0
-582 -228 -331 0
228 -583 0
582 -583 0
-228 -582 583 0
125 -584 0
22 -584 0
-125 -22 584 0
-583 435 0
-584 435 0
583 584 -435 0
23 126 -585 0
-23 126 585 0
23 -126 585 0
-23 -126 -585 0
585 229 -332 0
-585 229 332 0
585 -229 332 0
-585 -229 -332 0
229 -586 0
585 -586 0
-229 -585 586 0
126 -587 0
23 -587 0
-126 -23 587 0
-586 436 0
-587 436 0
586 587 -436 0
24 127 -588 0
-24 127 588 0
24 -127 588 0
-24 -127 -588 0
588 230 -333 0
-588 230 333 0
588 -230 333 0
-588 -230 -333 0
230 -589 0
588 -589 0
-230 -588 589 0
127 -590 0
24 -590 0
-127 -24 590 0
-589 437 0
-590 437 0
589 590 -437 0
25 128 -591 0
-25 128 591 0
25 -128 591 0
-25 -128 -591 0
591 231 -334 0
-591 231 334 0
591 -231 334 0
-591 -231 -334 0
231 -592 0
591 -592 0
-231 -591 592 0
128 -593 0
25 -593 0
-128 -25 593 0
-592 438 0
-593 438 0
592 593 -438 0
26 129 -594 0
-26 129 594 0
26 -129 594 0
-26 -129 -594 0
594 232 -335 0
-594 232 335 0
594 -232 335 0
-594 -232 -335 0
232 -595 0
594 -595 0
-232 -594 595 0
129 -596 0
26 -596 0
-129 -26 596 0
-595 439 0
-596 439 0
595 596 -439 0
27 130 -597 0
-27 130 597 0
27 -130 597 0
-27 -130 -597 0
597 233 -336 0
-597 233 336 0
597 -233 336 0
-597 -233 -336 0
233 -598 0
597 -598 0
-233 -597 598 0
130 -599 0
27 -599 0
-130 -27 599 0
-598 440 0
-599 440 0
598 599 -440 0
28 131 -600 0
-28 131 600 0
28 -131 600 0
-28 -131 -600 0
600 234 -337 0
-600 234 337 0
600 -234 337 0
-600 -234 -337 0
234 -601 0
600 -601 0
-234 -600 601 0
131 -602 0
28 -602 0
-131 -28 602 0
-601 441 0
-602 441 0
601 602 -441 0
29 132 -603 0
-29 132 603 0
29 -132 603 0
-29 -132 -603 0
603 235 -338 0
-603 235 338 0
603 -235 338 0
-603 -235 -338 0
235 -604 0
603 -604 0
-235 -603 604 0
132 -605 0
29 -605 0
-132 -29 605 0
-604 442 0
-605 442 0
604 605 -442 0
30 133 -606 0
-30 133 606 0
30 -133 606 0
-30 -133 -606 0
606 236 -339 0
-606 236 339 0
606 -236 339 0
-606 -236 -339 0
236 -607 0
606 -607 0
-236 -606 607 0
133 -608 0
30 -608 0
-133 -30 608 0
-607 443 0
-608 443 0
607 608 -443 0
31 134 -609 0
-31 134 609 0
31 -134 609 0
-31 -134 -609 0
609 237 -340 0
-609 237 340 0
609 -237 340 0
-609 -237 -340 0
237 -610 0
609 -610 0
-237 -609 610 0
134 -611 0
31 -611 0
-134 -31 611 0
-610 444 0
-611 444 0
610 611 -444 0
32 135 -612 0
-32 135 612 0
32 -135 612 0
-32 -135 -612 0
612 238 -341 0
-612 238 341 0
612 -238 341 0
-612 -238 -341 0
238 -613 0
612 -613 0
-238 -612 613 0
135 -614 0
32 -614 0
-135 -32 614 0
-613 445 0
-614 445 0
613 614 -445 0
33 136 -615 0
-33 136 615 0
33 -136 615 0
-33 -136 -615 0
615 239 -342 0
-615 239 342 0
615 -239 342 0
-615 -239 -342 0
239 -616 0
615 -616 0
-239 -615 616 0
136 -617 0
33 -617 0
-136 -33 617 0
-616 446 0
-617 446 0
616 617 -446 0
34 137 -618 0
-34 137 618 0
34 -137 618 0
-34 -137 -618 0
618 240 -343 0
-618 240 343 0
618 -240 343 0
-618 -240 -343 0
240 -619 0
618 -619 0
-240 -618 619 0
137 -620 0
34 -620 0
-137 -34 620 0
-619 447 0
-620 447 0
619 620 -447 0
35 138 -621 0
-35 138 621 0
35 -138 621 0
-35 -138 -621 0
621 241 -344 0
-621 241 344 0
621 -241 344 0
-621 -241 -344 0
241 -622 0
621 -622 0
-241 -621 622 0
138 -623 0
35 -623 0
-138 -35 623 0
-622 448 0
-623 448 0
622 623 -448 0
36 139 -624 0
-36 139 624 0
36 -139 624 0
-36 -139 -624 0
624 242 -345 0
-624 242 345 0
624 -242 345 0
-624 -242 -345 0
242 -625 0
624 -625 0
-242 -624 625 0
139 -626 0
36 -626 0
-139 -36 626 0
-625 449 0
-626 449 0
625 626 -449 0
37 140 -627 0
-37 140 627 0
37 -140 627 0
-37 -140 -627 0
627 243 -346 0
-627 243 346 0
627 -243 346 0
-627 -243 -346 0
243 -628 0
627 -628 0
-243 -627 628 0
140 -629 0
37 -629 0
-140 -37 629 0
-628 450 0
-629 450 0
628 629 -450 0
38 141 -630 0
-38 141 630 0
38 -141 630 0
-38 -141 -630 0
630 244 -347 0
-630 244 347 0
630 -244 347 0
-630 -244 -347 0
244 -631 0
630 -631 0
-244 -630 631 0
141 -632 0
38 -632 0
-141 -38 632 0
-631 451 0
-632 451 0
631 632 -451 0
39 142 -633 0
-39 142 633 0
39 -142 633 0
-39 -142 -633 0
633 245 -348 0
-633 245 348 0
633 -245 348 0
-633 -245 -348 0
245 -634 0
633 -634 0
-245 -633 634 0
142 -635 0
39 -635 0
-142 -39 635 0
-634 452 0
-635 452 0
634 635 -452 0
40 143 -636 0
-40 143 636 0
40 -143 636 0
-40 -143 -636 0
636 246 -349 0
-636 246 349 0
636 -246 349 0
-636 -246 -349 0
246 -637 0
636 -637 0
-246 -636 637 0
143 -638 0
40 -638 0
-143 -40 638 0
-637 453 0
-638 453 0
637 638 -453 0
41 144 -639 0
-41 144 639 0
41 -144 639 0
-41 -144 -639 0
639 247 -350 0
-639 247 350 0
639 -247 350 0
-639 -247 -350 0
247 -640 0
639 -640 0
-247 -639 640 0
144 -641 0
41 -641 0
-144 -41 641 0
-640 454 0
-641 454 0
640 641 -454 0
42 145 -642 0
-42 145 642 0
42 -145 642 0
-42 -145 -642 0
642 248 -351 0
-642 248 351 0
642 -248 351 0
-642 -248 -351 0
248 -643 0
642 -643 0
-248 -642 643 0
145 -644 0
42 -644 0
-145 -42 644 0
-643 455 0
-644 455 0
643 644 -455 0
43 146 -645 0
-43 146 645 0
43 -146 645 0
-43 -146 -645 0
645 249 -352 0
-645 249 352 0
645 -249 352 0
-645 -249 -352 0
249 -646 0
645 -646 0
-249 -645 646 0
146 -647 0
43 -647 0
-146 -43 647 0
-646 456 0
-647 456 0
646 647 -456 0
44 147 -648 0
-44 147 648 0
44 -147 648 0
-44 -147 -648 0
648 250 -353 0
-648 250 353 0
648 -250 353 0
-648 -250 -353 0
250 -649 0
648 -649 0
-250 -648 649 0
147 -650 0
44 -650 0
-147 -44 650 0
-649 457 0
-650 457 0
649 650 -457 0
45 148 -651 0
-45 148 651 0
45 -148 651 0
-45 -148 -651 0
651 251 -354 0
-651 251 354 0
651 -251 354 0
-651 -251 -354 0
251 -652 0
651 -652 0
-251 -651 652 0
148 -653 0
45 -653 0
-148 -45 653 0
-652 458 0
-653 458 0
652 653 -458 0
46 149 -654 0
-46 149 654 0
46 -149 654 0
-46 -149 -654 0
654 252 -355 0
-654 252 355 0
654 -252 355 0
-654 -252 -355 0
252 -655 0
654 -655 0
-252 -654 655 0
149 -656 0
46 -656 0
-149 -46 656 0
-655 459 0
-656 459 0
655 656 -459 0
47 150 -657 0
-47 150 657 0
47 -150 657 0
-47 -150 -657 0
657 253 -356 0
-657 253 356 0
657 -253 356 0
-657 -253 -356 0
253 -658 0
657 -658 0
-253 -657 658 0
150 -659 0
47 -659 0
-150 -47 659 0
-658 460 0
-659 460 0
658 659 -460 0
48 151 -660 0
-48 151 660 0
48 -151 660 0
-48 -151 -660 0
660 254 -357 0
-660 254 357 0
660 -254 357 0
-660 -254 -357 0
254 -661 0
660 -661 0
-254 -660 661 0
151 -662 0
48 -662 0
-151 -48 662 0
-661 461 0
-662 461 0
661 662 -461 0
49 152 -663 0
-49 152 663 0
49 -152 663 0
-49 -152 -663 0
663 255 -358 0
-663 255 358 0
663 -255 358 0
-663 -255 -358 0
255 -664 0
663 -664 0
-255 -663 664 0
152 -665 0
49 -665 0
-152 -49 665 0
-664 462 0
-665 462 0
664 665 -462 0
50 153 -666 0
-50 153 666 0
50 -153 666 0
-50 -153 -666 0
666 256 -359 0
-666 256 359 0
666 -256 359 0
-666 -256 -359 0
256 -667 0
666 -667 0
-256 -666 667 0
153 -668 0
50 -668 0
-153 -50 668 0
-667 463 0
-668 463 0
667 668 -463 0
51 154 -669 0
-51 154 669 0
51 -154 669 0
-51 -154 -669 0
669 257 -360 0
-669 257 360 0
669 -257 360 0
-669 -257 -360 0
257 -670 0
669 -670 0
-257 -669 670 0
154 -671 0
51 -671 0
-154 -51 671 0
-670 464 0
-671 464 0
670 671 -464 0
52 155 -672 0
-52 155 672 0
52 -155 672 0
-52 -155 -672 0
672 258 -361 0
-672 258 361 0
672 -258 361 0
-672 -258 -361 0
258 -673 0
672 -673 0
-258 -672 673 0
155 -674 0
52 -674 0
-155 -52 674 0
-673 465 0
-674 465 0
673 674 -465 0
53 156 -675 0
-53 156 675 0
53 -156 675 0
-53 -156 -675 0
675 259 -362 0
-675 259 362 0
675 -259 362 0
-675 -259 -362 0
259 -676 0
675 -676 0
-259 -675 676 0
156 -677 0
53 -677 0
-156 -53 677 0
-676 466 0
-677 466 0
676 677 -466 0
54 157 -678 0
-54 157 678 0
54 -157 678 0
-54 -157 -678 0
678 260 -363 0
-678 260 363 0
678 -260 363 0
-678 -260 -363 0
260 -679 0
678 -679 0
-260 -678 679 0
157 -680 0
54 -680 0
-157 -54 680 0
-679 467 0
-680 467 0
679 680 -467 0
55 158 -681 0
-55 158 681 0
55 -158 681 0
-55 -158 -681 0
681 261 -364 0
-681 261 364 0
681 -261 364 0
-681 -261 -364 0
261 -682 0
681 -682 0
-261 -681 682 0
158 -683 0
55 -683 0
-158 -55 683 0
-682 468 0
-683 468 0
682 683 -468 0
56 159 -684 0
-56 159 684 0
56 -159 684 0
-56 -159 -684 0
684 262 -365 0
-684 262 365 0
684 -262 365 0
-684 -262 -365 0
262 -685 0
684 -685 0
-262 -684 685 0
159 -686 0
56 -686 0
-159 -56 686 0
-685 469 0
-686 469 0
685 686 -469 0
57 160 -687 0
-57 160 687 0
57 -160 687 0
-57 -160 -687 0
687 263 -366 0
-687 263 366 0
687 -263 366 0
-687 -263 -366 0
263 -688 0
687 -688 0
-263 -687 688 0
160 -689 0
57 -689 0
-160 -57 689 0
-688 470 0
-689 470 0
688 689 -470 0
58 161 -690 0
-58 161 690 0
58 -161 690 0
-58 -161 -690 0
690 264 -367 0
-690 264 367 0
690 -264 367 0
-690 -264 -367 0
264 -691 0
690 -691 0
-264 -690 691 0
161 -692 0
58 -692 0
-161 -58 692 0
-691 471 0
-692 471 0
691 692 -471 0
59 162 -693 0
-59 162 693 0
59 -162 693 0
-59 -162 -693 0
693 265 -368 0
-693 265 368 0
693 -265 368 0
-693 -265 -368 0
265 -694 0
693 -694 0
-265 -693 694 0
162 -695 0
59 -695 0
-162 -59 695 0
-694 472 0
-695 472 0
694 695 -472 0
60 163 -696 0
-60 163 696 0
60 -163 696 0
-60 -163 -696 0
696 266 -369 0
-696 266 369 0
696 -266 369 0
-696 -266 -369 0
266 -697 0
696 -697 0
-266 -696 697 0
163 -698 0
60 -698 0
-163 -60 698 0
-697 473 0
-698 473 0
697 698 -473 0
61 164 -699 0
-61 164 699 0
61 -164 699 0
-61 -164 -699 0
699 267 -370 0
-699 267 370 0
699 -267 370 0
-699 -267 -370 0
267 -700 0
699 -700 0
-267 -699 700 0
164 -701 0
61 -701 0
-164 -61 701 0
-700 474 0
-701 474 0
700 701 -474 0
62 165 -702 0
-62 165 702 0
62 -165 702 0
-62 -165 -702 0
702 268 -371 0
-702 268 371 0
702 -268 371 0
-702 -268 -371 0
268 -703 0
702 -703 0
-268 -702 703 0
165 -704 0
62 -704 0
-165 -62 704 0
-703 475 0
-704 475 0
703 704 -475 0
63 166 -705 0
-63 166 705 0
63 -166 705 0
-63 -166 -705 0
705 269 -372 0
-705 269 372 0
705 -269 372 0
-705 -269 -372 0
269 -706 0
705 -706 0
-269 -705 706 0
166 -707 0
63 -707 0
-166 -63 707 0
-706 476 0
-707 476 0
706 707 -476 0
64 167 -708 0
-64 167 708 0
64 -167 708 0
-64 -167 -708 0
708 270 -373 0
-708 270 373 0
708 -270 373 0
-708 -270 -373 0
270 -709 0
708 -709 0
-270 -708 709 0
167 -710 0
64 -710 0
-167 -64 710 0
-709 477 0
-710 477 0
709 710 -477 0
65 168 -711 0
-65 168 711 0
65 -168 711 0
-65 -168 -711 0
711 271 -374 0
-711 271 374 0
711 -271 374 0
-711 -271 -374 0
271 -712 0
711 -712 0
-271 -711 712 0
168 -713 0
65 -713 0
-168 -65 713 0
-712 478 0
-713 478 0
712 713 -478 0
66 169 -714 0
-66 169 714 0
66 -169 714 0
-66 -169 -714 0
714 272 -375 0
-714 272 375 0
714 -272 375 0
-714 -272 -375 0
272 -715 0
714 -715 0
-272 -714 715 0
169 -716 0
66 -716 0
-169 -66 716 0
-715 479 0
-716 479 0
715 716 -479 0
67 170 -717 0
-67 170 717 0
67 -170 717 0
-67 -170 -717 0
717 273 -376 0
-717 273 376 0
717 -273 376 0
-717 -273 -376 0
273 -718 0
717 -718 0
-273 -717 718 0
170 -719 0
67 -719 0
-170 -67 719 0
-718 480 0
-719 480 0
718 719 -480 0
68 171 -720 0
-68 171 720 0
68 -171 720 0
-68 -171 -720 0
720 274 -377 0
-720 274 377 0
720 -274 377 0
-720 -274 -377 0
274 -721 0
720 -721 0
-274 -720 721 0
171 -722 0
68 -722 0
-171 -68 722 0
-721 481 0
-722 481 0
721 722 -481 0
69 172 -723 0
-69 172 723 0
69 -172 723 0
-69 -172 -723 0
723 275 -378 0
-723 275 378 0
723 -275 378 0
-723 -275 -378 0
275 -724 0
723 -724 0
-275 -723 724 0
172 -725 0
69 -725 0
-172 -69 725 0
-724 482 0
-725 482 0
724 725 -482 0
70 173 -726 0
-70 173 726 0
70 -173 726 0
-70 -173 -726 0
726 276 -379 0
-726 276 379 0
726 -276 379 0
-726 -276 -379 0
276 -727 0
726 -727 0
-276 -726 727 0
173 -728 0
70 -728 0
-173 -70 728 0
-727 483 0
-728 483 0
727 728 -483 0
71 174 -729 0
-71 174 729 0
71 -174 729 0
-71 -174 -729 0
729 277 -380 0
-729 277 380 0
729 -277 380 0
-729 -277 -380 0
277 -730 0
729 -730 0
-277 -729 730 0
174 -731 0
71 -731 0
-174 -71 731 0
-730 484 0
-731 484 0
730 731 -484 0
72 175 -732 0
-72 175 732 0
72 -175 732 0
-72 -175 -732 0
732 278 -381 0
-732 278 381 0
732 -278 381 0
-732 -278 -381 0
278 -733 0
732 -733 0
-278 -732 733 0
175 -734 0
72 -734 0
-175 -72 734 0
-733 485 0
-734 485 0
733 734 -485 0
73 176 -735 0
-73 176 735 0
73 -176 735 0
-73 -176 -735 0
735 279 -382 0
-735 279 382 0
735 -279 382 0
-735 -279 -382 0
279 -736 0
735 -736 0
-279 -735 736 0
176 -737 0
73 -737 0
-176 -73 737 0
-736 486 0
-737 486 0
736 737 -486 0
74 177 -738 0
-74 177 738 0
74 -177 738 0
-74 -177 -738 0
738 280 -383 0
-738 280 383 0
738 -280 383 0
-738 -280 -383 0
280 -739 0
738 -739 0
-280 -738 739 0
177 -740 0
74 -740 0
-177 -74 740 0
-739 487 0
-740 487 0
739 740 -487 0
75 178 -741 0
-75 178 741 0
75 -178 741 0
-75 -178 -741 0
741 281 -384 0
-741 281 384 0
741 -281 384 0
-741 -281 -384 0
281 -742 0
741 -742 0
-281 -741 742 0
178 -743 0
75 -743 0
-178 -75 743 0
-742 488 0
-743 488 0
742 743 -488 0
76 179 -744 0
-76 179 744 0
76 -179 744 0
-76 -179 -744 0
744 282 -385 0
-744 282 385 0
744 -282 385 0
-744 -282 -385 0
282 -745 0
744 -745 0
-282 -744 745 0
179 -746 0
76 -746 0
-179 -76 746 0
-745 489 0
-746 489 0
745 746 -489 0
77 180 -747 0
-77 180 747 0
77 -180 747 0
-77 -180 -747 0
747 283 -386 0
-747 283 386 0
747 -283 386 0
-747 -283 -386 0
283 -748 0
747 -748 0
-283 -747 748 0
180 -749 0
77 -749 0
-180 -77 749 0
-748 490 0
-749 490 0
748 749 -490 0
78 181 -750 0
-78 181 750 0
78 -181 750 0
-78 -181 -750 0
750 284 -387 0
-750 284 387 0
750 -284 387 0
-750 -284 -387 0
284 -751 0
750 -751 0
-284 -750 751 0
181 -752 0
78 -752 0
-181 -78 752 0
-751 491 0
-752 491 0
751 752 -491 0
79 182 -753 0
-79 182 753 0
79 -182 753 0
-79 -182 -753 0
753 285 -388 0
-753 285 388 0
753 -285 388 0
-753 -285 -388 0
285 -754 0
753 -754 0
-285 -753 754 0
182 -755 0
79 -755 0
-182 -79 755 0
-754 492 0
-755 492 0
754 755 -492 0
80 183 -756 0
-80 183 756 0
80 -183 756 0
-80 -183 -756 0
756 286 -389 0
-756 286 389 0
756 -286 389 0
-756 -286 -389 0
286 -757 0
756 -757 0
-286 -756 757 0
183 -758 0
80 -758 0
-183 -80 758 0
-757 493 0
-758 493 0
757 758 -493 0
81 184 -759 0
-81 184 759 0
81 -184 759 0
-81 -184 -759 0
759 287 -390 0
-759 287 390 0
759 -287 390 0
-759 -287 -390 0
287 -760 0
759 -760 0
-287 -759 760 0
184 -761 0
81 -761 0
-184 -81 761 0
-760 494 0
-761 494 0
760 761 -494 0
82 185 -762 0
-82 185 762 0
82 -185 762 0
-82 -185 -762 0
762 288 -391 0
-762 288 391 0
762 -288 391 0
-762 -288 -391 0
288 -763 0
762 -763 0
-288 -762 763 0
185 -764 0
82 -764 0
-185 -82 764 0
-763 495 0
-764 495 0
763 764 -495 0
83 186 -765 0
-83 186 765 0
83 -186 765 0
-83 -186 -765 0
765 289 -392 0
-765 289 392 0
765 -289 392 0
-765 -289 -392 0
289 -766 0
765 -766 0
-289 -765 766 0
186 -767 0
83 -767 0
-186 -83 767 0
-766 496 0
-767 496 0
766 767 -496 0
84 187 -768 0
-84 187 768 0
84 -187 768 0
-84 -187 -768 0
768 290 -393 0
-768 290 393 0
768 -290 393 0
-768 -290 -393 0
290 -769 0
768 -769 0
-290 -768 769 0
187 -770 0
84 -770 0
-187 -84 770 0
-769 497 0
-770 497 0
769 770 -497 0
85 188 -771 0
-85 188 771 0
85 -188 771 0
-85 -188 -771 0
771 291 -394 0
-771 291 394 0
771 -291 394 0
-771 -291 -394 0
291 -772 0
771 -772 0
-291 -771 772 0
188 -773 0
85 -773 0
-188 -85 773 0
-772 498 0
-773 498 0
772 773 -498 0
86 189 -774 0
-86 189 774 0
86 -189 774 0
-86 -189 -774 0
774 292 -395 0
-774 292 395 0
774 -292 395 0
-774 -292 -395 0
292 -775 0
774 -775 0
-292 -774 775 0
189 -776 0
86 -776 0
-189 -86 776 0
-775 499 0
-776 499 0
775 776 -499 0
87 190 -777 0
-87 190 777 0
87 -190 777 0
-87 -190 -777 0
777 293 -396 0
-777 293 396 0
777 -293 396 0
-777 -293 -396 0
293 -778 0
777 -778 0
-293 -777 778 0
190 -779 0
87 -779 0
-190 -87 779 0
-778 500 0
-779 500 0
778 779 -500 0
88 191 -780 0
-88 191 780 0
88 -191 780 0
-88 -191 -780 0
780 294 -397 0
-780 294 397 0
780 -294 397 0
-780 -294 -397 0
294 -781 0
780 -781 0
-294 -780 781 0
191 -782 0
88 -782 0
-191 -88 782 0
-781 501 0
-782 501 0
781 782 -501 0
89 192 -783 0
-89 192 783 0
89 -192 783 0
-89 -192 -783 0
783 295 -398 0
-783 295 398 0
783 -295 398 0
-783 -295 -398 0
295 -784 0
783 -784 0
-295 -783 784 0
192 -785 0
89 -785 0
-192 -89 785 0
-784 502 0
-785 502 0
784 785 -502 0
90 193 -786 0
-90 193 786 0
90 -193 786 0
-90 -193 -786 0
786 296 -399 0
-786 296 399 0
786 -296 399 0
-786 -296 -399 0
296 -787 0
786 -787 0
-296 -786 787 0
193 -788 0
90 -788 0
-193 -90 788 0
-787 503 0
-788 503 0
787 788 -503 0
91 194 -789 0
-91 194 789 0
91 -194 789 0
-91 -194 -789 0
789 297 -400 0
-789 297 400 0
789 -297 400 0
-789 -297 -400 0
297 -790 0
789 -790 0
-297 -789 790 0
194 -791 0
91 -791 0
-194 -91 791 0
-790 504 0
-791 504 0
790 791 -504 0
92 195 -792 0
-92 195 792 0
92 -195 792 0
-92 -195 -792 0
792 298 -401 0
-792 298 401 0
792 -298 401 0
-792 -298 -401 0
298 -793 0
792 -793 0
-298 -792 793 0
195 -794 0
92 -794 0
-195 -92 794 0
-793 505 0
-794 505 0
793 794 -505 0
93 196 -795 0
-93 196 795 0
93 -196 795 0
-93 -196 -795 0
795 299 -402 0
-795 299 402 0
795 -299 402 0
-795 -299 -402 0
299 -796 0
795 -796 0
-299 -795 796 0
196 -797 0
93 -797 0
-196 -93 797 0
-796 506 0
-797 506 0
796 797 -506 0
94 197 -798 0
-94 197 798 0
94 -197 798 0
-94 -197 -798 0
798 300 -403 0
-798 300 403 0
798 -300 403 0
-798 -300 -403 0
300 -799 0
798 -799 0
-300 -798 799 0
197 -800 0
94 -800 0
-197 -94 800 0
-799 507 0
-800 507 0
799 800 -507 0
95 198 -801 0
-95 198 801 0
95 -198 801 0
-95 -198 -801 0
801 301 -404 0
-801 301 404 0
801 -301 404 0
-801 -301 -404 0
301 -802 0
801 -802 0
-301 -801 802 0
198 -803 0
95 -803 0
-198 -95 803 0
-802 508 0
-803 508 0
802 803 -508 0
96 199 -804 0
-96 199 804 0
96 -199 804 0
-96 -199 -804 0
804 302 -405 0
-804 302 405 0
804 -302 405 0
-804 -302 -405 0
302 -805 0
804 -805 0
-302 -804 805 0
199 -806 0
96 -806 0
-199 -96 806 0
-805 509 0
-806 509 0
805 806 -509 0
97 200 -807 0
-97 200 807 0
97 -200 807 0
-97 -200 -807 0
807 303 -406 0
-807 303 406 0
807 -303 406 0
-807 -303 -406 0
303 -808 0
807 -808 0
-303 -807 808 0
200 -809 0
97 -809 0
-200 -97 809 0
-808 510 0
-809 510 0
808 809 -510 0
98 201 -810 0
-98 201 810 0
98 -201 810 0
-98 -201 -810 0
810 304 -407 0
-810 304 407 0
810 -304 407 0
-810 -304 -407 0
304 -811 0
810 -811 0
-304 -810 811 0
201 -812 0
98 -812 0
-201 -98 812 0
-811 511 0
-812 511 0
811 812 -511 0
99 202 -813 0
-99 202 813 0
99 -202 813 0
-99 -202 -813 0
813 305 -408 0
-813 305 408 0
813 -305 408 0
-813 -305 -408 0
305 -814 0
813 -814 0
-305 -813 814 0
202 -815 0
99 -815 0
-202 -99 815 0
-814 512 0
-815 512 0
814 815 -512 0
100 203 -816 0
-100 203 816 0
100 -203 816 0
-100 -203 -816 0
816 306 -409 0
-816 306 409 0
816 -306 409 0
-816 -306 -409 0
306 -817 0
816 -817 0
-306 -816 817 0
203 -818 0
100 -818 0
-203 -100 818 0
-817 513 0
-818 513 0
817 818 -513 0
101 204 -819 0
-101 204 819 0
101 -204 819 0
-101 -204 -819 0
819 307 -410 0
-819 307 410 0
819 -307 410 0
-819 -307 -410 0
307 -820 0
819 -820 0
-307 -819 820 0
204 -821 0
101 -821 0
-204 -101 821 0
-820 514 0
-821 514 0
820 821 -514 0
102 205 -822 0
-102 205 822 0
102 -205 822 0
-102 -205 -822 0
822 308 -411 0
-822 308 411 0
822 -308 411 0
-822 -308 -411 0
308 -823 0
822 -823 0
-308 -822 823 0
205 -824 0
102 -824 0
-205 -102 824 0
-823 515 0
-824 515 0
823 824 -515 0
103 206 -825 0
-103 206 825 0
103 -206 825 0
-103 -206 -825 0
825 309 -412 0
-825 309 412 0
825 -309 412 0
-825 -309 -412 0
309 -826 0
825 -826 0
-309 -825 826 0
206 -827 0
103 -827 0
-206 -103 827 0
-826 516 0
-827 516 0
826 827 -516 0
